p cnf 48 134
a 32 28 0
e 1 2 3 4 5 6 7 8 9 10 11 12 13 14 15 16 17 18 19 20 21 22 23 24 25 26 27 29 30 31 33 34 35 36 37 38 39 40 41 42 43 44 45 46 47 48 0
-2 -1 0
-2 -1 0
1 2 0
-6 -4 0
-6 -5 0
4 5 6 0
7 -3 0
7 6 0
3 -6 -7 0
-8 2 0
-8 -7 0
-2 7 8 0
-9 -5 0
-9 -4 0
5 4 9 0
-10 -1 -11 0
10 1 -11 0
-10 1 11 0
10 -1 11 0
-12 9 0
-12 11 0
-9 -11 12 0
-8 12 -13 0
8 -12 -13 0
-8 -12 13 0
8 12 13 0
-14 -15 -16 0
14 15 -16 0
-14 15 16 0
14 -15 16 0
-17 -9 0
-17 16 0
9 -16 17 0
-19 -10 0
-19 -18 0
10 18 19 0
-19 10 -20 0
19 -10 -20 0
-19 -10 20 0
19 10 20 0
-21 20 0
-21 7 0
-20 -7 21 0
-22 -17 0
-22 21 0
17 -21 22 0
-23 1 0
-23 4 0
-1 -4 23 0
-24 -23 0
-24 16 0
23 -16 24 0
-25 24 0
-25 23 0
-24 -23 25 0
26 -22 0
26 -25 0
22 25 -26 0
27 -13 0
27 26 0
13 -26 -27 0
5 18 -28 0
-5 -18 -28 0
5 -18 28 0
-5 18 28 0
29 -1 0
29 14 0
1 -14 -29 0
30 4 0
30 -29 0
-4 29 -30 0
31 -28 0
31 30 0
28 -30 -31 0
-33 32 0
-33 -1 0
-32 1 33 0
-15 34 0
15 34 0
36 -34 0
36 35 0
34 -35 -36 0
37 33 0
37 36 0
-33 -36 -37 0
31 37 -38 0
-31 -37 -38 0
31 -37 38 0
-31 37 38 0
-39 -34 0
-39 -2 0
34 2 39 0
-40 38 0
-40 39 0
-38 -39 40 0
41 18 0
41 7 0
-18 -7 -41 0
-42 6 0
-42 -4 0
-6 4 42 0
-43 41 0
-43 42 0
-41 -42 43 0
-6 -15 -44 0
6 15 -44 0
-6 15 44 0
6 -15 44 0
-45 -44 0
-45 -23 0
44 23 45 0
43 -45 -46 0
-43 45 -46 0
43 45 46 0
-43 -45 46 0
-47 -40 0
-47 -46 0
40 46 47 0
-48 27 0
-48 47 0
-27 -47 48 0
14 -9 23 28 17 -38 26 0
-27 17 20 -1 41 0
23 -13 -18 -7 -36 0
36 35 24 34 28 -32 19 3 0
4 42 -32 40 0
-2 30 -24 -31 27 16 0
39 -1 -6 -46 0
-38 37 8 24 21 46 0
44 -24 -4 42 -36 -22 0
15 29 39 0
-10 16 -5 -29 14 -48 0
31 -38 -9 -35 -42 47 -28 41 0
48 0
